p cnf 60 87
33 2 32 0
33 2 7 0
33 32 7 0
2 32 7 0
-33 -2 -32 0
-33 -2 -7 0
-33 -32 -7 0
-2 -32 -7 0
34 3 33 0
34 3 8 0
34 33 8 0
3 33 8 0
-34 -3 -33 0
-34 -3 -8 0
-34 -33 -8 0
-3 -33 -8 0
-5 -10 -35 -36 0
36 5 0
36 35 0
5 35 0
5 10 0
35 10 0
10 36 0
39 7 38 0
39 7 12 0
39 38 12 0
7 38 12 0
-39 -7 -38 0
-39 -7 -12 0
-39 -38 -12 0
-7 -38 -12 0
-11 -16 -43 -44 0
44 11 0
44 43 0
11 43 0
11 16 0
43 16 0
16 44 0
45 12 44 0
45 12 17 0
45 44 17 0
12 44 17 0
-45 -12 -44 0
-45 -12 -17 0
-45 -44 -17 0
-12 -44 -17 0
16 21 49 50 0
-50 -16 0
-50 -49 0
-16 -49 0
-16 -21 0
-49 -16 0
-21 -50 0
-19 0
-24 0
-52 0
-53 0
-20 -25 -53 -54 0
54 20 0
54 53 0
20 53 0
20 25 0
53 25 0
25 54 0
57 22 56 0
57 22 27 0
57 56 27 0
22 56 27 0
-57 -22 -56 0
-57 -22 -27 0
-57 -56 -27 0
-22 -56 -27 0
58 23 57 0
58 23 28 0
58 57 28 0
23 57 28 0
-58 -23 -57 0
-58 -23 -28 0
-58 -57 -28 0
-23 -57 -28 0
-24 -29 -58 -59 0
59 24 0
59 58 0
24 58 0
24 29 0
58 29 0
29 59 0
